1060717
58,18,16,25,11,93,39,28,78,50,77,24,23,42,51,21,72,83,91,38,13,80,3,6,65,85,44,86,75,37,87,49,35,98,67,62,12,92,48,55,9,76,29,95,20,19,17,68,40,74,5,61,30,59,31,73,36,47,0,69,32,8,56,46,94,71,54,43,90,41,34,1,2,4,63,26,96,52,7,88,84,79,82,14,15,57,60,81,66,64,53,97,22,10,27,45,70,33,89,58
